(set-logic HORN)
(declare-fun state (Int (Array Int Int) (Array Int Int) (Array Int Int) (Array Int Int) Int Int (Array Int Int) (Array Int Int) Int Int Int Int Int Int Int Int Int Int Int Int Int Int Int Int Int Int Int Int Int Int Int Int Int Int Int Int Int Int Int Int Int Int Int Int Int Bool Bool Bool Bool Bool Bool (Array Int Int)) Bool)
(assert (forall ((|A_38| Int) (|B_38| (Array Int Int)) (|C_38| (Array Int Int)) (|D_38| (Array Int Int)) (|E_38| (Array Int Int)) (|F_38| Int) (|G_38| Int) (|H_38| (Array Int Int)) (|I_38| (Array Int Int)) (|J_38| Int) (|K_38| Int) (|L_38| Int) (|M_38| Int) (|N_38| Int) (|O_38| Int) (|P_38| Int) (|Q_38| Int) (|R_38| Int) (|S_38| Int) (|T_38| Int) (|U_38| Int) (|V_38| Int) (|W_38| Int) (|X_38| Int) (|Y_38| Int) (|Z_38| Int) (|A1_38| Int) (|B1_38| Int) (|C1_38| Int) (|D1_38| Int) (|E1_38| Int) (|F1_38| Int) (|G1_38| Int) (|H1_38| Int) (|I1_38| Int) (|J1_38| Int) (|K1_38| Int) (|L1_38| Int) (|M1_38| Int) (|N1_38| Int) (|O1_38| Int) (|P1_38| Int) (|Q1_38| Int) (|R1_38| Int) (|S1_38| Int) (|T1_38| Int) (|V1_22| Bool) (|.loc.6| Bool) (|.loc.7| Bool) (|.loc.8| Bool) (|.loc.9| Bool) (|.loc.10| Bool) (|V1_0| (Array Int Int)) (|.x.1757| Int) (|.x.1755| (Array Int Int)) (|.x.1753| Int) (|.x.1751| (Array Int Int)) (|.x.1747| Int) (|.x.1749| (Array Int Int)) (|.x.1748| (Array Int Int)) (|U1_38| Bool) (|.x.1759| Int) (|.x.1760| Int) (|.x.1764| Int) (|.x.1765| Int) (|.x.1770| Int) (|.x.1771| Int) (|.x.1772| Int) (|.x.1773| Int) (|.x.1779| Int) (|.x.1781| Int) (|.x.1783| Int) (|.x.1785| Int) (|.x.1788| Int) (|.x.1789| Int) (|.loc.12| Bool) (|.x.1774| Int) (|.x.1762| Int) (|.x.1775| Int) (|.x.1790| Int) (|.loc.15| Bool) (|.loc.11| Bool) (|.loc.13| Bool) (|.loc.14| Bool) (|.x.1784| Int) (|.x.1782| Int) (|.x.1777| Int) (|.x.1750| (Array Int Int)) (|.x.1778| Int) (|.x.1780| Int) (|.x.1787| Int) (|.x.1776| Int) (|.x.1786| Int) (|.x.1768| Int) (|.x.1791| Int) (|.x.1769| Int) (|.x.1792| Int) (|.x.1766| Int) (|.x.1767| Int) (|.x.1763| Int) (|.x.1758| Int) (|.x.1761| Int) (|.x.1756| Int) (|.x.1752| Int) (|.x.1754| (Array Int Int)) (|.xtv.1| (Array Int Int))) (=> (and (and (and (and (and .loc.6 (not .loc.7)) (not .loc.8)) (not .loc.9)) (not .loc.10)) (and (and (and (and (and (= D_38 E_38) (not V1_22)) (= F_38 G_38)) (= J_38 K_38)) (= H_38 I_38)) (= B_38 C_38))) (state |A_38| |B_38| |C_38| |D_38| |E_38| |F_38| |G_38| |H_38| |I_38| |J_38| |K_38| |L_38| |M_38| |N_38| |O_38| |P_38| |Q_38| |R_38| |S_38| |T_38| |U_38| |V_38| |W_38| |X_38| |Y_38| |Z_38| |A1_38| |B1_38| |C1_38| |D1_38| |E1_38| |F1_38| |G1_38| |H1_38| |I1_38| |J1_38| |K1_38| |L1_38| |M1_38| |N1_38| |O1_38| |P1_38| |Q1_38| |R1_38| |S1_38| |T1_38| |V1_22| |.loc.6| |.loc.7| |.loc.8| |.loc.9| |.loc.10| |V1_0|))))
(assert (forall ((|A_38| Int) (|B_38| (Array Int Int)) (|C_38| (Array Int Int)) (|D_38| (Array Int Int)) (|E_38| (Array Int Int)) (|F_38| Int) (|G_38| Int) (|H_38| (Array Int Int)) (|I_38| (Array Int Int)) (|J_38| Int) (|K_38| Int) (|L_38| Int) (|M_38| Int) (|N_38| Int) (|O_38| Int) (|P_38| Int) (|Q_38| Int) (|R_38| Int) (|S_38| Int) (|T_38| Int) (|U_38| Int) (|V_38| Int) (|W_38| Int) (|X_38| Int) (|Y_38| Int) (|Z_38| Int) (|A1_38| Int) (|B1_38| Int) (|C1_38| Int) (|D1_38| Int) (|E1_38| Int) (|F1_38| Int) (|G1_38| Int) (|H1_38| Int) (|I1_38| Int) (|J1_38| Int) (|K1_38| Int) (|L1_38| Int) (|M1_38| Int) (|N1_38| Int) (|O1_38| Int) (|P1_38| Int) (|Q1_38| Int) (|R1_38| Int) (|S1_38| Int) (|T1_38| Int) (|V1_22| Bool) (|.loc.6| Bool) (|.loc.7| Bool) (|.loc.8| Bool) (|.loc.9| Bool) (|.loc.10| Bool) (|V1_0| (Array Int Int)) (|.x.1757| Int) (|.x.1755| (Array Int Int)) (|.x.1753| Int) (|.x.1751| (Array Int Int)) (|.x.1747| Int) (|.x.1749| (Array Int Int)) (|.x.1748| (Array Int Int)) (|U1_38| Bool) (|.x.1759| Int) (|.x.1760| Int) (|.x.1764| Int) (|.x.1765| Int) (|.x.1770| Int) (|.x.1771| Int) (|.x.1772| Int) (|.x.1773| Int) (|.x.1779| Int) (|.x.1781| Int) (|.x.1783| Int) (|.x.1785| Int) (|.x.1788| Int) (|.x.1789| Int) (|.loc.12| Bool) (|.x.1774| Int) (|.x.1762| Int) (|.x.1775| Int) (|.x.1790| Int) (|.loc.15| Bool) (|.loc.11| Bool) (|.loc.13| Bool) (|.loc.14| Bool) (|.x.1784| Int) (|.x.1782| Int) (|.x.1777| Int) (|.x.1750| (Array Int Int)) (|.x.1778| Int) (|.x.1780| Int) (|.x.1787| Int) (|.x.1776| Int) (|.x.1786| Int) (|.x.1768| Int) (|.x.1791| Int) (|.x.1769| Int) (|.x.1792| Int) (|.x.1766| Int) (|.x.1767| Int) (|.x.1763| Int) (|.x.1758| Int) (|.x.1761| Int) (|.x.1756| Int) (|.x.1752| Int) (|.x.1754| (Array Int Int)) (|.xtv.1| (Array Int Int))) (=> (and (state |A_38| |B_38| |C_38| |D_38| |E_38| |F_38| |G_38| |H_38| |I_38| |J_38| |K_38| |L_38| |M_38| |N_38| |O_38| |P_38| |Q_38| |R_38| |S_38| |T_38| |U_38| |V_38| |W_38| |X_38| |Y_38| |Z_38| |A1_38| |B1_38| |C1_38| |D1_38| |E1_38| |F1_38| |G1_38| |H1_38| |I1_38| |J1_38| |K1_38| |L1_38| |M1_38| |N1_38| |O1_38| |P1_38| |Q1_38| |R1_38| |S1_38| |T1_38| |V1_22| |.loc.6| |.loc.7| |.loc.8| |.loc.9| |.loc.10| |V1_0|) (let ((.def_63 (not .loc.7))) (let ((.def_65 (not .loc.8))) (let ((.def_67 (not .loc.9))) (let ((.def_69 (not .loc.10))) (let ((.def_101 (= B_38 .x.1748))) (let ((.def_105 (= M_38 .x.1759))) (let ((.def_108 (= N_38 .x.1760))) (let ((.def_111 (= R_38 .x.1764))) (let ((.def_114 (= S_38 .x.1765))) (let ((.def_117 (= X_38 .x.1770))) (let ((.def_120 (= Y_38 .x.1771))) (let ((.def_123 (= Z_38 .x.1772))) (let ((.def_126 (= A1_38 .x.1773))) (let ((.def_129 (= G1_38 .x.1779))) (let ((.def_132 (= I1_38 .x.1781))) (let ((.def_135 (= K1_38 .x.1783))) (let ((.def_138 (= M1_38 .x.1785))) (let ((.def_141 (= P1_38 .x.1788))) (let ((.def_144 (= Q1_38 .x.1789))) (let ((.def_146 (not .loc.6))) (let ((.def_162 (= V1_22 U1_38))) (let ((.def_172 (= P_38 0))) (let ((.def_175 (and .def_108 (and .def_101 .def_105)))) (let ((.def_187 (and .def_144 (and .def_141 (and .def_138 (and .def_135 (and .def_132 (and .def_129 (and .def_126 (and .def_123 (and .def_120 (and .def_117 (and .def_114 (and .def_111 .def_175)))))))))))))) (let ((.def_193 (not .loc.12))) (let ((.def_199 (= B1_38 .x.1774))) (let ((.def_201 (= P_38 .x.1762))) (let ((.def_204 (= C1_38 .x.1775))) (let ((.def_207 (= R1_38 .x.1790))) (let ((.def_212 (not .loc.11))) (let ((.def_215 (not .loc.13))) (let ((.def_218 (not .loc.14))) (let ((.def_224 (select D_38 S_38))) (let ((.def_229 (select D_38 K1_38))) (let ((.def_235 (<= 100000 L1_38))) (let ((.def_256 (not .loc.15))) (let ((.def_261 (= L1_38 .x.1784))) (let ((.def_263 (= J1_38 .x.1782))) (let ((.def_273 (and .def_114 (and .def_111 (and .def_175 .def_201))))) (let ((.def_277 (and .def_126 (and .def_123 (and .def_120 (and .def_117 .def_273)))))) (let ((.def_301 (and .def_204 (and .def_199 .def_277)))) (let ((.def_305 (and .def_135 (and .def_263 (and .def_132 (and .def_129 .def_301)))))) (let ((.def_323 (and V1_22 .def_101))) (let ((.def_343 (and .def_207 (and .def_144 (and .def_141 (and .def_138 (and .def_261 (and .def_135 (and .def_263 (and .def_132 (and .def_129 (and .def_204 (and .def_199 (and .def_126 (and .def_123 (and .def_120 (and .def_117 (and .def_114 (and .def_111 (and .def_201 (and .def_108 (and .def_105 .def_323)))))))))))))))))))))) (let ((.def_361 (and .def_207 (and .def_144 (and .def_141 (and .def_138 (and .def_261 .def_305))))))) (let ((.def_390 (and .def_63 (and .def_146 (and .loc.9 (and .loc.8 .def_361)))))) (let ((.def_398 (<= 100000 H1_38))) (let ((.def_399 (or V1_22 .def_398))) (let ((.def_403 (= E1_38 .x.1777))) (let ((.def_405 (= D_38 .x.1750))) (let ((.def_408 (= F1_38 .x.1778))) (let ((.def_411 (= H1_38 .x.1780))) (let ((.def_414 (* 4 H1_38))) (let ((.def_423 (not .def_398))) (let ((.def_436 (or U1_38 (= (+ H1_38 (* (- 1) .x.1780)) (- 1))))) (let ((.def_447 (and .def_114 (and .def_111 (and .def_201 (and .def_108 (and .def_105 (and .def_101 .def_405)))))))) (let ((.def_453 (and .def_204 (and .def_199 (and .def_126 (and .def_123 (and .def_120 (and .def_117 .def_447)))))))) (let ((.def_456 (and .def_129 (and .def_408 (and .def_403 .def_453))))) (let ((.def_465 (and .def_207 (and .def_144 (and .def_141 (and .def_138 (and .def_261 (and .def_135 (and .def_263 (and .def_132 (and .def_411 .def_456))))))))))) (let ((.def_484 (and .def_114 (and .def_111 (and .def_201 (and .def_108 (and .def_105 (and .def_323 .def_405)))))))) (let ((.def_490 (and .def_204 (and .def_199 (and .def_126 (and .def_123 (and .def_120 (and .def_117 .def_484)))))))) (let ((.def_502 (and .def_207 (and .def_144 (and .def_141 (and .def_138 (and .def_261 (and .def_135 (and .def_263 (and .def_132 (and .def_411 (and .def_129 (and .def_408 (and .def_403 .def_490)))))))))))))) (let ((.def_535 (or V1_22 (= .x.1780 0)))) (let ((.def_564 (= O1_38 .x.1787))) (let ((.def_566 (= D1_38 .x.1776))) (let ((.def_570 (select D_38 A1_38))) (let ((.def_605 (and .def_129 (and .def_408 (and .def_403 (and .def_453 .def_566)))))) (let ((.def_678 (= N1_38 .x.1786))) (let ((.def_680 (= V_38 .x.1768))) (let ((.def_684 (select D_38 N_38))) (let ((.def_718 (and .def_447 .def_680))) (let ((.def_728 (and .def_129 (and .def_408 (and .def_403 (and .def_566 (and .def_204 (and .def_199 (and .def_126 (and .def_123 (and .def_120 (and .def_117 .def_718)))))))))))) (let ((.def_752 (and .def_484 .def_680))) (let ((.def_811 (= S1_38 .x.1791))) (let ((.def_813 (= W_38 .x.1769))) (let ((.def_817 (select D_38 Z_38))) (let ((.def_824 (and .def_273 .def_680))) (let ((.def_869 (and .def_129 (and .def_408 (and .def_403 (and .def_566 (and .def_204 (and .def_199 (and .def_126 (and .def_123 (and .def_120 (and .def_117 (and .def_718 .def_813))))))))))))) (let ((.def_955 (= T1_38 .x.1792))) (let ((.def_957 (= T_38 .x.1766))) (let ((.def_1016 (and .def_129 (and .def_408 (and .def_403 (and .def_566 (and .def_204 (and .def_199 (and .def_126 (and .def_123 (and .def_120 (and .def_117 (and .def_813 (and .def_680 (and .def_447 .def_957))))))))))))))) (let ((.def_1080 (<= 100000 O_38))) (let ((.def_1125 (store D_38 K1_38 (store .def_229 (+ (* 4 O_38) M1_38) L_38)))) (let ((.def_1257 (store V1_0 .x.1783 1))) (let ((.def_1258 (store .def_1257 .x.1772 1))) (let ((.def_1265 (store .def_1258 .x.1760 1))) (let ((.def_1269 (store .def_1265 .x.1773 1))) (let ((.def_1273 (store .def_1269 .x.1781 1))) (and (and (= K_38 .x.1757) (and (= I_38 .x.1755) (and (= G_38 .x.1753) (and (= E_38 .x.1751) (and (= A_38 .x.1747) (= C_38 .x.1749)))))) (or (and (or (and (or (or (or (or (and (or (or (or (or (and (or (or (or (or (and (or (or (or (or (and (or (or (or (or (or (or (and (or (or (or (or (or (or (and (or (and (or (and (or (and (and (and (and (and (and (and (and (and (and (and (and (and (and (and (and .def_101 U1_38) .def_105) .def_108) .def_111) .def_114) .def_117) .def_120) .def_123) .def_126) .def_129) .def_132) .def_135) .def_138) .def_141) .def_144) .def_146) (and (or V1_22 (and (= .x.1789 0) (= .x.1748 (store (store (store (store (store (store B_38 K1_38 0) Z_38 0) N_38 0) A1_38 0) I1_38 0) S_38 0)))) (and (and .loc.6 (or U1_38 (= .x.1770 .x.1789))) .def_162))) (and (and .def_67 (and .def_65 (and .loc.10 .def_63))) .loc.12)) (and (or V1_22 .def_172) (and .def_69 (and (and .def_162 (and .loc.9 (and .loc.8 (and .loc.7 (and .loc.6 .def_187))))) .def_193)))) (and (and (and (and (and (and (and .def_199 .def_201) .def_204) .def_207) .loc.15) .def_212) .def_215) .def_218)) (and (or V1_22 (and (= .x.1774 (select .def_224 (+ (* 4 L1_38) P1_38))) (and (= .x.1775 (select .def_229 (+ (* 4 L1_38) M1_38))) (and (= .x.1762 .x.1790) (and (not .def_235) (= .x.1790 (ite (= .x.1774 .x.1775) 1 0))))))) (and (and .def_69 (and .def_162 (and .loc.14 (and .loc.13 (and .loc.12 (and .loc.11 (and .def_146 (and .loc.9 (and .loc.8 (and .loc.7 .def_187)))))))))) .def_256))) (and .def_261 .def_263)) (and (or U1_38 (= (+ L1_38 (* (- 1) .x.1784)) (- 1))) (and .def_256 (and .def_69 (and .def_162 (and .def_212 (and .loc.14 (and .loc.13 (and .loc.12 (and .def_67 (and .def_65 (and .def_63 (and .def_146 (and .def_207 (and .def_144 (and .def_141 (and .def_138 (and .def_135 (and .def_132 (and .def_129 .def_277)))))))))))))))))))) (and (or V1_22 (= .x.1784 0)) (and .def_256 (and .def_69 (and .def_162 (and .def_212 (and .loc.14 (and .loc.13 (and .loc.12 (and .def_63 (and .loc.9 (and .loc.8 (and .loc.6 (and .def_207 (and .def_144 (and .def_141 (and .def_138 .def_305))))))))))))))))) (and .def_69 (and .def_193 (and .def_162 (and .def_218 (and .def_215 (and .loc.15 (and .loc.11 (and .def_146 (and .loc.9 (and .loc.8 (and .loc.7 .def_343)))))))))))) (and (or V1_22 .def_235) (and .def_69 (and .def_193 (and .def_162 (and .def_218 (and .def_215 (and .loc.15 (and .loc.11 (and .def_146 (and .loc.9 (and .loc.8 (and .loc.7 .def_361))))))))))))) (and .def_256 (and .def_69 (and .def_193 (and .def_162 (and .loc.14 (and .loc.13 (and .loc.11 (and .def_63 (and .def_146 (and .loc.9 (and .loc.8 .def_343)))))))))))) (and (and .def_256 (and .def_69 (and .def_193 (and .def_162 (and .loc.14 (and .loc.13 (and .loc.11 .def_390))))))) .def_399)) (and (and (and .def_403 .def_405) .def_408) .def_411)) (and (or V1_22 (and (= .x.1750 (store D_38 S_38 (store .def_224 (+ .def_414 P1_38) (select (select D_38 I1_38) (+ R_38 .def_414))))) .def_423)) (and (and .def_256 (and .def_69 (and .def_193 (and .def_162 (and .def_212 (and .loc.14 (and .loc.13 .def_390))))))) .def_436))) (and (or V1_22 (not .def_172)) (and .def_256 (and .def_69 (and .def_193 (and .def_162 (and .def_218 (and .def_215 (and .def_212 (and .loc.9 (and .loc.8 (and .loc.7 (and .loc.6 .def_465))))))))))))) (and .def_256 (and .def_193 (and .def_162 (and .def_218 (and .def_215 (and .def_212 (and .def_67 (and .def_65 (and .def_63 (and .def_146 (and .loc.10 .def_502)))))))))))) (and (and .def_256 (and .def_69 (and .def_193 (and .def_162 (and .def_212 (and .loc.14 (and .loc.13 (and .def_65 (and .loc.9 (and .loc.7 (and .loc.6 (and .def_207 (and .def_144 (and .def_141 (and .def_138 (and .def_261 (and .def_135 (and .def_263 (and .def_132 .def_456))))))))))))))))))) .def_535)) (and .def_256 (and .def_69 (and .def_162 (and .def_215 (and .loc.14 (and .loc.12 (and .loc.11 (and .def_65 (and .def_146 (and .loc.9 (and .loc.7 .def_502)))))))))))) (and .def_399 (and .def_256 (and .def_69 (and .def_162 (and .def_215 (and .loc.14 (and .loc.12 (and .loc.11 (and .def_65 (and .def_146 (and .loc.9 (and .loc.7 .def_465))))))))))))) (and .def_564 .def_566)) (and (or V1_22 (and .def_423 (= .x.1750 (store D_38 S_38 (store .def_224 (+ .def_414 P1_38) (select .def_570 (+ G1_38 .def_414))))))) (and .def_436 (and .def_256 (and .def_69 (and .def_162 (and .def_215 (and .def_212 (and .loc.14 (and .loc.12 (and .def_65 (and .def_146 (and .loc.9 (and .loc.7 (and .def_207 (and .def_144 (and .def_141 (and .def_138 (and .def_261 (and .def_135 (and .def_263 (and .def_132 (and .def_129 (and .def_408 (and .def_301 .def_403))))))))))))))))))))))))) (and .def_535 (and .def_256 (and .def_69 (and .def_162 (and .def_215 (and .def_212 (and .loc.14 (and .loc.12 (and .def_65 (and .def_63 (and .loc.9 (and .loc.6 (and .def_207 (and .def_144 (and .def_141 (and .def_564 (and .def_138 (and .def_261 (and .def_135 (and .def_263 (and .def_132 .def_605)))))))))))))))))))))) (and .def_256 (and .def_69 (and .def_193 (and .def_162 (and .def_215 (and .loc.14 (and .loc.11 (and .def_65 (and .def_63 (and .def_146 (and .loc.9 (and .def_207 (and .def_144 (and .def_141 (and .def_564 (and .def_138 (and .def_261 (and .def_135 (and .def_263 (and .def_132 (and .def_411 (and .def_129 (and .def_408 (and .def_403 (and .def_490 .def_566)))))))))))))))))))))))))) (and .def_399 (and .def_256 (and .def_69 (and .def_193 (and .def_162 (and .def_215 (and .loc.14 (and .loc.11 (and .def_65 (and .def_63 (and .def_146 (and .loc.9 (and .def_207 (and .def_144 (and .def_141 (and .def_564 (and .def_138 (and .def_261 (and .def_135 (and .def_263 (and .def_132 (and .def_411 .def_605))))))))))))))))))))))) (and .def_678 .def_680)) (and (or V1_22 (and .def_423 (= .x.1750 (store D_38 A1_38 (store .def_570 (+ G1_38 .def_414) (select .def_684 (+ Y_38 .def_414))))))) (and .def_436 (and .def_256 (and .def_69 (and .def_193 (and .def_162 (and .def_215 (and .def_212 (and .loc.14 (and .def_65 (and .def_63 (and .def_146 (and .loc.9 (and .def_207 (and .def_144 (and .def_141 (and .def_564 (and .def_138 (and .def_261 (and .def_135 (and .def_263 (and .def_132 (and .def_129 (and .def_408 (and .def_403 (and .def_301 .def_566))))))))))))))))))))))))))) (and .def_535 (and .def_256 (and .def_69 (and .def_193 (and .def_162 (and .def_215 (and .def_212 (and .loc.14 (and .def_67 (and .loc.8 (and .loc.7 (and .loc.6 (and .def_207 (and .def_144 (and .def_141 (and .def_564 (and .def_678 (and .def_138 (and .def_261 (and .def_135 (and .def_263 (and .def_132 .def_728))))))))))))))))))))))) (and .def_256 (and .def_69 (and .def_162 (and .def_218 (and .loc.13 (and .loc.12 (and .loc.11 (and .def_67 (and .def_146 (and .loc.8 (and .loc.7 (and .def_207 (and .def_144 (and .def_141 (and .def_564 (and .def_678 (and .def_138 (and .def_261 (and .def_135 (and .def_263 (and .def_132 (and .def_411 (and .def_129 (and .def_408 (and .def_403 (and .def_566 (and .def_204 (and .def_199 (and .def_126 (and .def_123 (and .def_120 (and .def_117 .def_752))))))))))))))))))))))))))))))))) (and .def_399 (and .def_256 (and .def_69 (and .def_162 (and .def_218 (and .loc.13 (and .loc.12 (and .loc.11 (and .def_67 (and .def_146 (and .loc.8 (and .loc.7 (and .def_207 (and .def_144 (and .def_141 (and .def_564 (and .def_678 (and .def_138 (and .def_261 (and .def_135 (and .def_263 (and .def_132 (and .def_411 .def_728)))))))))))))))))))))))) (and .def_811 .def_813)) (and (or V1_22 (and .def_423 (= .x.1750 (store D_38 N_38 (store .def_684 (+ Y_38 .def_414) (select .def_817 (+ M_38 .def_414))))))) (and .def_436 (and .def_256 (and .def_69 (and .def_162 (and .def_218 (and .def_212 (and .loc.13 (and .loc.12 (and .def_67 (and .def_146 (and .loc.8 (and .loc.7 (and .def_207 (and .def_144 (and .def_141 (and .def_564 (and .def_678 (and .def_138 (and .def_261 (and .def_135 (and .def_263 (and .def_132 (and .def_129 (and .def_408 (and .def_403 (and .def_566 (and .def_204 (and .def_199 (and .def_126 (and .def_123 (and .def_120 (and .def_117 .def_824)))))))))))))))))))))))))))))))))) (and .def_535 (and .def_256 (and .def_69 (and .def_162 (and .def_218 (and .def_212 (and .loc.13 (and .loc.12 (and .def_67 (and .def_63 (and .loc.8 (and .loc.6 (and .def_811 (and .def_207 (and .def_144 (and .def_141 (and .def_564 (and .def_678 (and .def_138 (and .def_261 (and .def_135 (and .def_263 (and .def_132 .def_869)))))))))))))))))))))))) (and .def_256 (and .def_69 (and .def_193 (and .def_162 (and .def_218 (and .loc.13 (and .loc.11 (and .def_67 (and .def_63 (and .def_146 (and .loc.8 (and .def_811 (and .def_207 (and .def_144 (and .def_141 (and .def_564 (and .def_678 (and .def_138 (and .def_261 (and .def_135 (and .def_263 (and .def_132 (and .def_411 (and .def_129 (and .def_408 (and .def_403 (and .def_566 (and .def_204 (and .def_199 (and .def_126 (and .def_123 (and .def_120 (and .def_117 (and .def_752 .def_813))))))))))))))))))))))))))))))))))) (and .def_399 (and .def_256 (and .def_69 (and .def_193 (and .def_162 (and .def_218 (and .loc.13 (and .loc.11 (and .def_67 (and .def_63 (and .def_146 (and .loc.8 (and .def_811 (and .def_207 (and .def_144 (and .def_141 (and .def_564 (and .def_678 (and .def_138 (and .def_261 (and .def_135 (and .def_263 (and .def_132 (and .def_411 .def_869))))))))))))))))))))))))) (and .def_955 .def_957)) (and (or V1_22 (and .def_423 (= .x.1750 (store D_38 Z_38 (store .def_817 (+ M_38 .def_414) (select .def_229 (+ .def_414 M1_38))))))) (and .def_436 (and .def_256 (and .def_69 (and .def_193 (and .def_162 (and .def_218 (and .def_212 (and .loc.13 (and .def_67 (and .def_63 (and .def_146 (and .loc.8 (and .def_811 (and .def_207 (and .def_144 (and .def_141 (and .def_564 (and .def_678 (and .def_138 (and .def_261 (and .def_135 (and .def_263 (and .def_132 (and .def_129 (and .def_408 (and .def_403 (and .def_566 (and .def_204 (and .def_199 (and .def_126 (and .def_123 (and .def_120 (and .def_117 (and .def_813 .def_824)))))))))))))))))))))))))))))))))))) (and .def_535 (and .def_256 (and .def_69 (and .def_193 (and .def_162 (and .def_218 (and .def_212 (and .loc.13 (and .def_67 (and .def_65 (and .loc.7 (and .loc.6 (and .def_955 (and .def_811 (and .def_207 (and .def_144 (and .def_141 (and .def_564 (and .def_678 (and .def_138 (and .def_261 (and .def_135 (and .def_263 (and .def_132 .def_1016))))))))))))))))))))))))) (and .def_256 (and .def_69 (and .def_162 (and .def_218 (and .def_215 (and .loc.12 (and .loc.11 (and .def_67 (and .def_65 (and .def_146 (and .loc.7 (and .def_955 (and .def_811 (and .def_207 (and .def_144 (and .def_141 (and .def_564 (and .def_678 (and .def_138 (and .def_261 (and .def_135 (and .def_263 (and .def_132 (and .def_411 (and .def_129 (and .def_408 (and .def_403 (and .def_566 (and .def_204 (and .def_199 (and .def_126 (and .def_123 (and .def_120 (and .def_117 (and .def_813 (and .def_680 (and .def_484 .def_957)))))))))))))))))))))))))))))))))))))) (and (or V1_22 .def_1080) (and .def_256 (and .def_69 (and .def_162 (and .def_218 (and .def_215 (and .loc.12 (and .loc.11 (and .def_67 (and .def_65 (and .def_146 (and .loc.7 (and .def_955 (and .def_811 (and .def_207 (and .def_144 (and .def_141 (and .def_564 (and .def_678 (and .def_138 (and .def_261 (and .def_135 (and .def_263 (and .def_132 (and .def_411 .def_1016)))))))))))))))))))))))))) (and (= U_38 .x.1767) (and (= Q_38 .x.1763) (and (= L_38 .x.1758) (= O_38 .x.1761))))) (and (or V1_22 (and (= .x.1750 (store .def_1125 I1_38 (store (select .def_1125 I1_38) (+ (* 4 O_38) R_38) Q_38))) (and (<= (- 2147483648) Q_38) (and (<= (- 2147483648) L_38) (and (not .def_1080) (and (<= L_38 2147483647) (<= Q_38 2147483647))))))) (and (or U1_38 (= (+ O_38 (* (- 1) .x.1761)) (- 1))) (and .def_256 (and .def_69 (and .def_162 (and .def_218 (and .def_215 (and .def_212 (and .loc.12 (and .def_67 (and .def_65 (and .def_146 (and .loc.7 (and .def_955 (and .def_811 (and .def_207 (and .def_144 (and .def_141 (and .def_564 (and .def_678 (and .def_138 (and .def_261 (and .def_135 (and .def_263 (and .def_132 (and .def_411 (and .def_129 (and .def_408 (and .def_403 (and .def_566 (and .def_204 (and .def_199 (and .def_126 (and .def_123 (and .def_120 (and .def_117 (and .def_813 (and .def_680 (and .def_273 .def_957)))))))))))))))))))))))))))))))))))))))) (and (= J_38 .x.1756) (and (= F_38 .x.1752) (= H_38 .x.1754)))) (and (or V1_22 (and (and (= .x.1756 0) (= .x.1752 0)) (= V1_0 (store B_38 0 0)))) (and (or U1_38 (and (and (and (and (and (and (and (and (and (and (and (and (and (and (and (and (and (and (and (and (and (and (and (and (and (and (not (<= .x.1747 .x.1765)) (not (<= .x.1747 .x.1760))) (not (<= .x.1747 .x.1772))) (not (<= .x.1747 .x.1773))) (not (<= .x.1747 .x.1781))) (not (<= .x.1747 .x.1783))) (= .x.1759 0)) (= .x.1761 0)) (= .x.1764 0)) (not (= .x.1765 0))) (= .x.1771 0)) (not (= .x.1773 0))) (= .x.1779 0)) (not (= .x.1781 0))) (= .x.1788 0)) (= .x.1785 0)) (not (= .x.1760 0))) (not (= .x.1772 0))) (not (= .x.1783 0))) (= (select V1_0 .x.1783) 0)) (= (select .def_1258 .x.1760) 0)) (= (select .def_1257 .x.1772) 0)) (= (select .def_1265 .x.1773) 0)) (= (select .def_1269 .x.1781) 0)) (= (select .def_1273 .x.1765) 0)) (= .x.1754 (store (store (store (store (store (store H_38 .x.1783 400000) .x.1772 400000) .x.1760 400000) .x.1773 400000) .x.1781 400000) .x.1765 400000))) (= .x.1748 (store .def_1273 .x.1765 1)))) (and .def_256 (and .def_69 (and .def_162 (and .def_218 (and .def_215 (and .def_212 (and .loc.12 (and .def_67 (and .def_65 (and .def_63 (and .loc.6 (and .def_207 (and .def_117 (and .def_201 .def_405))))))))))))))))))))))))))))))))))))))))))))))))))))))))))))))))))))))))))))))))))))))))))))))))))))))))))) (state |.x.1747| |.x.1748| |.x.1749| |.x.1750| |.x.1751| |.x.1752| |.x.1753| |.x.1754| |.x.1755| |.x.1756| |.x.1757| |.x.1758| |.x.1759| |.x.1760| |.x.1761| |.x.1762| |.x.1763| |.x.1764| |.x.1765| |.x.1766| |.x.1767| |.x.1768| |.x.1769| |.x.1770| |.x.1771| |.x.1772| |.x.1773| |.x.1774| |.x.1775| |.x.1776| |.x.1777| |.x.1778| |.x.1779| |.x.1780| |.x.1781| |.x.1782| |.x.1783| |.x.1784| |.x.1785| |.x.1786| |.x.1787| |.x.1788| |.x.1789| |.x.1790| |.x.1791| |.x.1792| |U1_38| |.loc.11| |.loc.12| |.loc.13| |.loc.14| |.loc.15| |.xtv.1|))))
(assert (forall ((|A_38| Int) (|B_38| (Array Int Int)) (|C_38| (Array Int Int)) (|D_38| (Array Int Int)) (|E_38| (Array Int Int)) (|F_38| Int) (|G_38| Int) (|H_38| (Array Int Int)) (|I_38| (Array Int Int)) (|J_38| Int) (|K_38| Int) (|L_38| Int) (|M_38| Int) (|N_38| Int) (|O_38| Int) (|P_38| Int) (|Q_38| Int) (|R_38| Int) (|S_38| Int) (|T_38| Int) (|U_38| Int) (|V_38| Int) (|W_38| Int) (|X_38| Int) (|Y_38| Int) (|Z_38| Int) (|A1_38| Int) (|B1_38| Int) (|C1_38| Int) (|D1_38| Int) (|E1_38| Int) (|F1_38| Int) (|G1_38| Int) (|H1_38| Int) (|I1_38| Int) (|J1_38| Int) (|K1_38| Int) (|L1_38| Int) (|M1_38| Int) (|N1_38| Int) (|O1_38| Int) (|P1_38| Int) (|Q1_38| Int) (|R1_38| Int) (|S1_38| Int) (|T1_38| Int) (|V1_22| Bool) (|.loc.6| Bool) (|.loc.7| Bool) (|.loc.8| Bool) (|.loc.9| Bool) (|.loc.10| Bool) (|V1_0| (Array Int Int)) (|.x.1757| Int) (|.x.1755| (Array Int Int)) (|.x.1753| Int) (|.x.1751| (Array Int Int)) (|.x.1747| Int) (|.x.1749| (Array Int Int)) (|.x.1748| (Array Int Int)) (|U1_38| Bool) (|.x.1759| Int) (|.x.1760| Int) (|.x.1764| Int) (|.x.1765| Int) (|.x.1770| Int) (|.x.1771| Int) (|.x.1772| Int) (|.x.1773| Int) (|.x.1779| Int) (|.x.1781| Int) (|.x.1783| Int) (|.x.1785| Int) (|.x.1788| Int) (|.x.1789| Int) (|.loc.12| Bool) (|.x.1774| Int) (|.x.1762| Int) (|.x.1775| Int) (|.x.1790| Int) (|.loc.15| Bool) (|.loc.11| Bool) (|.loc.13| Bool) (|.loc.14| Bool) (|.x.1784| Int) (|.x.1782| Int) (|.x.1777| Int) (|.x.1750| (Array Int Int)) (|.x.1778| Int) (|.x.1780| Int) (|.x.1787| Int) (|.x.1776| Int) (|.x.1786| Int) (|.x.1768| Int) (|.x.1791| Int) (|.x.1769| Int) (|.x.1792| Int) (|.x.1766| Int) (|.x.1767| Int) (|.x.1763| Int) (|.x.1758| Int) (|.x.1761| Int) (|.x.1756| Int) (|.x.1752| Int) (|.x.1754| (Array Int Int)) (|.xtv.1| (Array Int Int))) (=> (state |A_38| |B_38| |C_38| |D_38| |E_38| |F_38| |G_38| |H_38| |I_38| |J_38| |K_38| |L_38| |M_38| |N_38| |O_38| |P_38| |Q_38| |R_38| |S_38| |T_38| |U_38| |V_38| |W_38| |X_38| |Y_38| |Z_38| |A1_38| |B1_38| |C1_38| |D1_38| |E1_38| |F1_38| |G1_38| |H1_38| |I1_38| |J1_38| |K1_38| |L1_38| |M1_38| |N1_38| |O1_38| |P1_38| |Q1_38| |R1_38| |S1_38| |T1_38| |V1_22| |.loc.6| |.loc.7| |.loc.8| |.loc.9| |.loc.10| |V1_0|) (not (and V1_22 (and .loc.10 (and (not .loc.9) (and (not .loc.8) (and .loc.7 (not .loc.6))))))))))
(check-sat)
